NAME: test1712
TYPE: TSP
DIMENSION: 11
EDGE_WEIGHT_TYPE: EUC_2D
NODE_COORD_SECTION
1 59.09769425629345 20.565895623787313
2 67.07068535155028 3.6122888261510555
3 1.8432478831791 72.03749970234294
4 20.814095165101463 55.23057832884434
5 93.75303654639046 54.79555391210107
6 23.125494268716352 32.87761368745035
7 52.08841903951061 15.96802871078169
8 91.59220905428897 26.563856174370283
9 33.171587983575144 54.51952594551839
10 1.0323536681041467 3.537941069110917
11 5.399315244461233 96.82194280255652
EOF
